(declare-fun b_ack!59 () (_ BitVec 64))
(declare-fun a_ack!60 () (_ BitVec 32))
(declare-fun FPCHECK_FADD_ACCURACY ((_ BitVec 64) (_ BitVec 64)) Bool)
(assert (not (fp.leq ((_ to_fp 11 53) b_ack!59) ((_ to_fp 11 53) #xbfe0000000000000))))
(assert (not (bvslt a_ack!60 #x00000000)))
(assert (not (= #x00000000 a_ack!60)))
(assert (not (fp.eq ((_ to_fp 11 53) b_ack!59) ((_ to_fp 11 53) #x0000000000000000))))
(assert (bvsle #x00000002 a_ack!60))
(assert (FPCHECK_FADD_ACCURACY #x4000000000000000 b_ack!59))

(check-sat)
(exit)
